c " random instance " 
p edges 200 4130
e 1 3
e 1 7
e 1 18
e 1 23
e 1 32
e 1 33
e 1 34
e 1 35
e 1 38
e 1 39
e 1 41
e 1 47
e 1 51
e 1 53
e 1 59
e 1 90
e 1 92
e 1 93
e 1 95
e 1 99
e 1 101
e 1 116
e 1 122
e 1 125
e 1 127
e 1 130
e 1 134
e 1 137
e 1 148
e 1 154
e 1 156
e 1 163
e 1 168
e 1 171
e 1 174
e 1 176
e 1 178
e 1 180
e 1 183
e 1 187
e 1 192
e 1 198
e 1 200
e 2 4
e 2 13
e 2 19
e 2 22
e 2 26
e 2 35
e 2 39
e 2 45
e 2 46
e 2 47
e 2 48
e 2 58
e 2 61
e 2 63
e 2 64
e 2 69
e 2 71
e 2 83
e 2 87
e 2 99
e 2 100
e 2 101
e 2 110
e 2 115
e 2 117
e 2 120
e 2 121
e 2 124
e 2 127
e 2 130
e 2 140
e 2 145
e 2 148
e 2 151
e 2 153
e 2 155
e 2 157
e 2 161
e 2 163
e 2 165
e 2 173
e 2 180
e 2 184
e 2 189
e 2 190
e 2 193
e 2 194
e 2 195
e 2 196
e 3 11
e 3 13
e 3 16
e 3 19
e 3 20
e 3 27
e 3 32
e 3 39
e 3 43
e 3 45
e 3 47
e 3 48
e 3 50
e 3 62
e 3 66
e 3 77
e 3 78
e 3 84
e 3 86
e 3 90
e 3 91
e 3 94
e 3 97
e 3 104
e 3 105
e 3 110
e 3 121
e 3 123
e 3 129
e 3 132
e 3 136
e 3 137
e 3 142
e 3 145
e 3 146
e 3 149
e 3 154
e 3 155
e 3 156
e 3 162
e 3 168
e 3 171
e 3 172
e 3 178
e 3 180
e 3 192
e 3 195
e 4 9
e 4 18
e 4 21
e 4 27
e 4 28
e 4 34
e 4 38
e 4 53
e 4 61
e 4 64
e 4 66
e 4 67
e 4 69
e 4 72
e 4 84
e 4 87
e 4 95
e 4 104
e 4 105
e 4 108
e 4 110
e 4 112
e 4 113
e 4 120
e 4 133
e 4 136
e 4 137
e 4 142
e 4 144
e 4 145
e 4 152
e 4 156
e 4 159
e 4 172
e 4 178
e 4 188
e 4 194
e 4 199
e 5 9
e 5 10
e 5 11
e 5 14
e 5 16
e 5 18
e 5 23
e 5 27
e 5 31
e 5 35
e 5 50
e 5 52
e 5 59
e 5 60
e 5 80
e 5 84
e 5 86
e 5 88
e 5 94
e 5 118
e 5 120
e 5 143
e 5 146
e 5 156
e 5 157
e 5 166
e 5 176
e 5 177
e 5 185
e 5 192
e 5 193
e 5 198
e 6 8
e 6 9
e 6 10
e 6 19
e 6 21
e 6 29
e 6 37
e 6 42
e 6 43
e 6 50
e 6 51
e 6 57
e 6 61
e 6 64
e 6 70
e 6 79
e 6 82
e 6 86
e 6 93
e 6 94
e 6 96
e 6 98
e 6 100
e 6 101
e 6 105
e 6 109
e 6 120
e 6 121
e 6 126
e 6 132
e 6 135
e 6 136
e 6 137
e 6 139
e 6 142
e 6 144
e 6 151
e 6 164
e 6 171
e 6 180
e 6 181
e 6 186
e 6 189
e 7 8
e 7 12
e 7 41
e 7 46
e 7 51
e 7 57
e 7 58
e 7 67
e 7 71
e 7 81
e 7 86
e 7 91
e 7 95
e 7 98
e 7 104
e 7 105
e 7 118
e 7 120
e 7 127
e 7 136
e 7 139
e 7 141
e 7 142
e 7 144
e 7 145
e 7 152
e 7 153
e 7 161
e 7 164
e 7 168
e 7 170
e 7 173
e 7 178
e 7 196
e 7 200
e 8 12
e 8 14
e 8 19
e 8 37
e 8 40
e 8 44
e 8 53
e 8 63
e 8 72
e 8 78
e 8 79
e 8 81
e 8 86
e 8 90
e 8 94
e 8 102
e 8 103
e 8 107
e 8 113
e 8 116
e 8 117
e 8 118
e 8 132
e 8 133
e 8 134
e 8 155
e 8 157
e 8 158
e 8 159
e 8 161
e 8 163
e 8 164
e 8 165
e 8 173
e 8 175
e 8 178
e 8 183
e 8 194
e 8 196
e 9 13
e 9 32
e 9 42
e 9 45
e 9 47
e 9 50
e 9 51
e 9 53
e 9 58
e 9 59
e 9 61
e 9 63
e 9 77
e 9 85
e 9 91
e 9 107
e 9 112
e 9 116
e 9 119
e 9 127
e 9 128
e 9 131
e 9 132
e 9 134
e 9 142
e 9 143
e 9 154
e 9 157
e 9 160
e 9 174
e 9 178
e 9 182
e 9 188
e 9 194
e 9 197
e 9 198
e 9 200
e 10 18
e 10 21
e 10 25
e 10 27
e 10 29
e 10 31
e 10 35
e 10 36
e 10 51
e 10 53
e 10 59
e 10 71
e 10 74
e 10 75
e 10 89
e 10 96
e 10 107
e 10 117
e 10 118
e 10 120
e 10 126
e 10 128
e 10 129
e 10 132
e 10 133
e 10 145
e 10 152
e 10 158
e 10 159
e 10 160
e 10 165
e 10 166
e 10 167
e 10 168
e 10 179
e 10 182
e 10 185
e 10 197
e 11 15
e 11 20
e 11 23
e 11 32
e 11 38
e 11 47
e 11 49
e 11 52
e 11 53
e 11 55
e 11 63
e 11 66
e 11 67
e 11 76
e 11 78
e 11 80
e 11 83
e 11 87
e 11 90
e 11 98
e 11 105
e 11 107
e 11 109
e 11 122
e 11 123
e 11 125
e 11 130
e 11 133
e 11 143
e 11 156
e 11 167
e 11 170
e 11 171
e 11 174
e 11 175
e 11 179
e 11 183
e 11 185
e 11 189
e 12 14
e 12 15
e 12 20
e 12 25
e 12 29
e 12 35
e 12 37
e 12 41
e 12 53
e 12 58
e 12 61
e 12 62
e 12 69
e 12 73
e 12 76
e 12 77
e 12 84
e 12 87
e 12 110
e 12 112
e 12 121
e 12 138
e 12 140
e 12 159
e 12 164
e 12 167
e 12 174
e 12 175
e 12 177
e 12 183
e 12 184
e 12 187
e 13 14
e 13 30
e 13 31
e 13 34
e 13 35
e 13 38
e 13 39
e 13 44
e 13 47
e 13 49
e 13 50
e 13 57
e 13 62
e 13 66
e 13 76
e 13 84
e 13 91
e 13 99
e 13 102
e 13 110
e 13 114
e 13 123
e 13 127
e 13 130
e 13 131
e 13 139
e 13 140
e 13 143
e 13 149
e 13 156
e 13 158
e 13 159
e 13 166
e 13 172
e 13 173
e 13 174
e 13 176
e 13 181
e 13 188
e 13 189
e 13 192
e 13 198
e 13 199
e 14 15
e 14 16
e 14 18
e 14 19
e 14 22
e 14 26
e 14 28
e 14 37
e 14 38
e 14 39
e 14 40
e 14 44
e 14 53
e 14 54
e 14 59
e 14 60
e 14 65
e 14 69
e 14 71
e 14 72
e 14 75
e 14 77
e 14 83
e 14 97
e 14 101
e 14 115
e 14 117
e 14 118
e 14 119
e 14 126
e 14 132
e 14 134
e 14 136
e 14 147
e 14 151
e 14 153
e 14 158
e 14 163
e 14 167
e 14 185
e 14 186
e 14 188
e 14 193
e 14 200
e 15 22
e 15 31
e 15 33
e 15 34
e 15 38
e 15 39
e 15 41
e 15 51
e 15 52
e 15 55
e 15 67
e 15 77
e 15 79
e 15 90
e 15 92
e 15 96
e 15 108
e 15 118
e 15 119
e 15 120
e 15 134
e 15 138
e 15 139
e 15 145
e 15 153
e 15 154
e 15 163
e 15 167
e 15 174
e 15 176
e 15 183
e 15 190
e 15 195
e 15 197
e 15 199
e 16 19
e 16 20
e 16 25
e 16 31
e 16 71
e 16 73
e 16 79
e 16 82
e 16 83
e 16 85
e 16 87
e 16 92
e 16 93
e 16 96
e 16 102
e 16 103
e 16 111
e 16 112
e 16 115
e 16 122
e 16 124
e 16 128
e 16 131
e 16 137
e 16 141
e 16 142
e 16 167
e 16 184
e 16 188
e 16 189
e 17 20
e 17 32
e 17 44
e 17 51
e 17 57
e 17 58
e 17 61
e 17 91
e 17 102
e 17 103
e 17 112
e 17 115
e 17 116
e 17 121
e 17 124
e 17 125
e 17 126
e 17 135
e 17 150
e 17 155
e 17 159
e 17 165
e 17 166
e 17 167
e 17 185
e 17 191
e 17 199
e 18 24
e 18 34
e 18 36
e 18 38
e 18 43
e 18 51
e 18 53
e 18 55
e 18 64
e 18 65
e 18 67
e 18 73
e 18 80
e 18 81
e 18 82
e 18 90
e 18 102
e 18 103
e 18 106
e 18 111
e 18 114
e 18 115
e 18 116
e 18 121
e 18 128
e 18 134
e 18 141
e 18 154
e 18 155
e 18 161
e 18 167
e 18 168
e 18 179
e 18 182
e 18 185
e 19 20
e 19 26
e 19 33
e 19 39
e 19 41
e 19 45
e 19 46
e 19 53
e 19 57
e 19 62
e 19 63
e 19 65
e 19 67
e 19 69
e 19 74
e 19 75
e 19 82
e 19 84
e 19 109
e 19 127
e 19 130
e 19 133
e 19 137
e 19 139
e 19 140
e 19 141
e 19 144
e 19 157
e 19 162
e 19 163
e 19 167
e 19 170
e 19 181
e 19 193
e 19 198
e 20 37
e 20 44
e 20 48
e 20 52
e 20 53
e 20 59
e 20 61
e 20 71
e 20 81
e 20 82
e 20 88
e 20 101
e 20 104
e 20 105
e 20 110
e 20 111
e 20 121
e 20 124
e 20 131
e 20 141
e 20 148
e 20 151
e 20 155
e 20 158
e 20 167
e 20 171
e 20 172
e 20 174
e 20 182
e 20 186
e 20 191
e 20 194
e 20 199
e 21 31
e 21 34
e 21 36
e 21 39
e 21 41
e 21 43
e 21 50
e 21 67
e 21 68
e 21 71
e 21 84
e 21 100
e 21 104
e 21 105
e 21 106
e 21 117
e 21 118
e 21 120
e 21 121
e 21 122
e 21 123
e 21 126
e 21 128
e 21 129
e 21 134
e 21 145
e 21 146
e 21 150
e 21 158
e 21 163
e 21 164
e 21 175
e 21 177
e 21 187
e 21 191
e 21 195
e 21 196
e 21 197
e 21 198
e 21 199
e 22 25
e 22 27
e 22 29
e 22 30
e 22 31
e 22 35
e 22 36
e 22 53
e 22 55
e 22 58
e 22 61
e 22 62
e 22 65
e 22 72
e 22 76
e 22 77
e 22 89
e 22 94
e 22 100
e 22 102
e 22 107
e 22 112
e 22 118
e 22 126
e 22 134
e 22 139
e 22 146
e 22 147
e 22 159
e 22 176
e 22 185
e 22 186
e 22 190
e 22 197
e 22 199
e 22 200
e 23 24
e 23 29
e 23 31
e 23 52
e 23 60
e 23 72
e 23 76
e 23 77
e 23 79
e 23 84
e 23 92
e 23 101
e 23 104
e 23 112
e 23 113
e 23 116
e 23 118
e 23 122
e 23 123
e 23 132
e 23 134
e 23 136
e 23 138
e 23 141
e 23 143
e 23 149
e 23 153
e 23 155
e 23 160
e 23 161
e 23 166
e 23 171
e 23 174
e 23 177
e 23 178
e 23 179
e 23 180
e 23 185
e 23 189
e 23 191
e 23 196
e 24 27
e 24 28
e 24 34
e 24 35
e 24 38
e 24 42
e 24 44
e 24 47
e 24 51
e 24 53
e 24 68
e 24 75
e 24 83
e 24 87
e 24 93
e 24 94
e 24 96
e 24 97
e 24 100
e 24 106
e 24 109
e 24 114
e 24 116
e 24 121
e 24 124
e 24 125
e 24 136
e 24 145
e 24 149
e 24 151
e 24 156
e 24 164
e 24 172
e 24 174
e 24 176
e 24 187
e 24 191
e 24 199
e 25 27
e 25 30
e 25 31
e 25 32
e 25 38
e 25 40
e 25 52
e 25 57
e 25 58
e 25 60
e 25 61
e 25 64
e 25 71
e 25 76
e 25 80
e 25 92
e 25 95
e 25 100
e 25 101
e 25 104
e 25 106
e 25 109
e 25 110
e 25 111
e 25 129
e 25 145
e 25 148
e 25 151
e 25 153
e 25 157
e 25 168
e 25 172
e 25 176
e 25 177
e 25 185
e 25 190
e 25 191
e 25 192
e 26 33
e 26 34
e 26 35
e 26 40
e 26 43
e 26 44
e 26 47
e 26 52
e 26 55
e 26 58
e 26 61
e 26 67
e 26 73
e 26 75
e 26 77
e 26 89
e 26 94
e 26 102
e 26 105
e 26 118
e 26 120
e 26 121
e 26 125
e 26 136
e 26 145
e 26 147
e 26 151
e 26 153
e 26 162
e 26 163
e 26 176
e 26 182
e 26 194
e 26 198
e 27 35
e 27 38
e 27 44
e 27 49
e 27 55
e 27 58
e 27 59
e 27 75
e 27 82
e 27 89
e 27 98
e 27 100
e 27 105
e 27 107
e 27 109
e 27 111
e 27 113
e 27 114
e 27 116
e 27 118
e 27 119
e 27 124
e 27 133
e 27 136
e 27 137
e 27 138
e 27 155
e 27 169
e 27 173
e 27 176
e 27 182
e 27 183
e 27 185
e 27 188
e 27 191
e 27 195
e 27 197
e 27 199
e 28 30
e 28 31
e 28 32
e 28 37
e 28 43
e 28 48
e 28 49
e 28 56
e 28 57
e 28 65
e 28 73
e 28 86
e 28 89
e 28 90
e 28 91
e 28 107
e 28 108
e 28 111
e 28 113
e 28 114
e 28 119
e 28 124
e 28 138
e 28 152
e 28 160
e 28 174
e 28 179
e 28 184
e 28 185
e 28 186
e 28 188
e 28 190
e 28 196
e 28 198
e 28 199
e 29 35
e 29 38
e 29 45
e 29 47
e 29 53
e 29 59
e 29 65
e 29 69
e 29 74
e 29 77
e 29 87
e 29 94
e 29 104
e 29 106
e 29 107
e 29 114
e 29 129
e 29 130
e 29 132
e 29 142
e 29 145
e 29 149
e 29 151
e 29 163
e 29 173
e 29 182
e 29 183
e 29 191
e 29 194
e 30 32
e 30 40
e 30 47
e 30 49
e 30 51
e 30 55
e 30 57
e 30 59
e 30 64
e 30 70
e 30 79
e 30 83
e 30 95
e 30 97
e 30 105
e 30 108
e 30 121
e 30 134
e 30 135
e 30 137
e 30 144
e 30 145
e 30 146
e 30 148
e 30 149
e 30 157
e 30 159
e 30 163
e 30 173
e 30 178
e 30 180
e 30 190
e 30 191
e 30 193
e 30 194
e 31 35
e 31 41
e 31 57
e 31 58
e 31 61
e 31 66
e 31 67
e 31 69
e 31 80
e 31 88
e 31 91
e 31 94
e 31 95
e 31 105
e 31 107
e 31 111
e 31 113
e 31 116
e 31 121
e 31 128
e 31 132
e 31 134
e 31 147
e 31 158
e 31 163
e 31 179
e 31 184
e 31 185
e 31 195
e 31 197
e 32 38
e 32 41
e 32 43
e 32 47
e 32 54
e 32 55
e 32 60
e 32 74
e 32 86
e 32 88
e 32 90
e 32 107
e 32 111
e 32 122
e 32 132
e 32 133
e 32 135
e 32 136
e 32 137
e 32 139
e 32 150
e 32 157
e 32 161
e 32 163
e 32 166
e 32 171
e 32 175
e 32 178
e 32 182
e 32 185
e 32 187
e 32 190
e 32 193
e 32 196
e 32 197
e 33 35
e 33 38
e 33 43
e 33 46
e 33 58
e 33 59
e 33 60
e 33 72
e 33 74
e 33 77
e 33 80
e 33 82
e 33 86
e 33 87
e 33 94
e 33 100
e 33 108
e 33 117
e 33 118
e 33 124
e 33 126
e 33 127
e 33 133
e 33 137
e 33 142
e 33 143
e 33 157
e 33 160
e 33 167
e 33 171
e 33 178
e 33 182
e 33 200
e 34 39
e 34 44
e 34 52
e 34 53
e 34 55
e 34 61
e 34 70
e 34 76
e 34 77
e 34 82
e 34 85
e 34 88
e 34 90
e 34 92
e 34 98
e 34 99
e 34 105
e 34 107
e 34 108
e 34 115
e 34 119
e 34 130
e 34 135
e 34 142
e 34 148
e 34 152
e 34 155
e 34 161
e 34 162
e 34 164
e 34 169
e 34 170
e 34 173
e 34 174
e 34 177
e 34 182
e 34 183
e 34 196
e 34 200
e 35 44
e 35 50
e 35 55
e 35 62
e 35 64
e 35 66
e 35 80
e 35 82
e 35 85
e 35 86
e 35 88
e 35 91
e 35 94
e 35 95
e 35 96
e 35 108
e 35 115
e 35 116
e 35 124
e 35 126
e 35 127
e 35 131
e 35 135
e 35 137
e 35 140
e 35 153
e 35 155
e 35 160
e 35 173
e 35 175
e 35 178
e 35 180
e 35 181
e 35 187
e 35 193
e 35 200
e 36 37
e 36 46
e 36 50
e 36 51
e 36 52
e 36 55
e 36 62
e 36 71
e 36 75
e 36 83
e 36 89
e 36 94
e 36 95
e 36 98
e 36 100
e 36 101
e 36 105
e 36 110
e 36 115
e 36 120
e 36 121
e 36 124
e 36 137
e 36 141
e 36 144
e 36 145
e 36 146
e 36 153
e 36 155
e 36 157
e 36 159
e 36 160
e 36 162
e 36 166
e 36 170
e 36 172
e 36 175
e 36 182
e 36 187
e 36 188
e 36 191
e 36 195
e 36 198
e 37 38
e 37 42
e 37 50
e 37 65
e 37 67
e 37 76
e 37 84
e 37 86
e 37 93
e 37 94
e 37 98
e 37 104
e 37 105
e 37 109
e 37 115
e 37 116
e 37 128
e 37 139
e 37 140
e 37 142
e 37 152
e 37 157
e 37 170
e 37 173
e 37 174
e 37 176
e 37 180
e 37 181
e 37 193
e 38 43
e 38 46
e 38 47
e 38 50
e 38 62
e 38 67
e 38 70
e 38 75
e 38 76
e 38 77
e 38 82
e 38 85
e 38 86
e 38 88
e 38 95
e 38 98
e 38 105
e 38 109
e 38 116
e 38 117
e 38 118
e 38 126
e 38 139
e 38 144
e 38 146
e 38 151
e 38 152
e 38 155
e 38 157
e 38 166
e 38 173
e 38 174
e 38 176
e 38 178
e 38 179
e 38 183
e 38 184
e 38 185
e 38 189
e 38 192
e 38 193
e 38 194
e 39 44
e 39 47
e 39 50
e 39 56
e 39 66
e 39 73
e 39 74
e 39 78
e 39 84
e 39 98
e 39 108
e 39 112
e 39 139
e 39 148
e 39 151
e 39 158
e 39 159
e 39 160
e 39 170
e 39 178
e 39 183
e 39 188
e 39 195
e 40 43
e 40 47
e 40 51
e 40 58
e 40 59
e 40 71
e 40 75
e 40 76
e 40 80
e 40 82
e 40 84
e 40 85
e 40 89
e 40 90
e 40 91
e 40 93
e 40 97
e 40 100
e 40 107
e 40 109
e 40 112
e 40 115
e 40 118
e 40 122
e 40 126
e 40 131
e 40 138
e 40 140
e 40 150
e 40 155
e 40 158
e 40 173
e 40 185
e 40 186
e 40 187
e 40 198
e 41 43
e 41 47
e 41 51
e 41 55
e 41 56
e 41 57
e 41 58
e 41 69
e 41 77
e 41 96
e 41 104
e 41 108
e 41 114
e 41 120
e 41 128
e 41 129
e 41 135
e 41 142
e 41 145
e 41 146
e 41 151
e 41 152
e 41 154
e 41 156
e 41 158
e 41 181
e 41 183
e 41 193
e 41 196
e 41 198
e 42 51
e 42 53
e 42 58
e 42 59
e 42 63
e 42 70
e 42 73
e 42 80
e 42 83
e 42 87
e 42 88
e 42 90
e 42 95
e 42 96
e 42 103
e 42 105
e 42 109
e 42 111
e 42 115
e 42 121
e 42 123
e 42 125
e 42 127
e 42 128
e 42 132
e 42 135
e 42 138
e 42 139
e 42 145
e 42 146
e 42 152
e 42 153
e 42 155
e 42 156
e 42 158
e 42 162
e 42 174
e 42 178
e 42 180
e 42 190
e 42 199
e 43 48
e 43 49
e 43 57
e 43 62
e 43 67
e 43 72
e 43 73
e 43 74
e 43 76
e 43 86
e 43 89
e 43 91
e 43 96
e 43 101
e 43 103
e 43 109
e 43 111
e 43 118
e 43 120
e 43 123
e 43 127
e 43 134
e 43 136
e 43 137
e 43 146
e 43 149
e 43 157
e 43 161
e 43 166
e 43 168
e 43 173
e 43 184
e 43 191
e 43 198
e 44 47
e 44 51
e 44 54
e 44 55
e 44 58
e 44 60
e 44 61
e 44 64
e 44 65
e 44 67
e 44 68
e 44 73
e 44 75
e 44 77
e 44 78
e 44 84
e 44 87
e 44 90
e 44 93
e 44 97
e 44 105
e 44 112
e 44 123
e 44 126
e 44 130
e 44 136
e 44 145
e 44 152
e 44 160
e 44 161
e 44 162
e 44 168
e 44 185
e 44 191
e 44 198
e 44 199
e 44 200
e 45 50
e 45 59
e 45 69
e 45 85
e 45 88
e 45 92
e 45 109
e 45 111
e 45 112
e 45 122
e 45 135
e 45 143
e 45 147
e 45 152
e 45 154
e 45 155
e 45 161
e 45 164
e 45 167
e 45 170
e 45 181
e 45 188
e 45 190
e 45 194
e 45 195
e 46 54
e 46 62
e 46 63
e 46 79
e 46 84
e 46 86
e 46 95
e 46 97
e 46 113
e 46 115
e 46 118
e 46 119
e 46 126
e 46 129
e 46 130
e 46 138
e 46 143
e 46 144
e 46 154
e 46 158
e 46 163
e 46 171
e 46 174
e 46 177
e 46 178
e 46 183
e 46 187
e 46 188
e 46 191
e 46 196
e 47 60
e 47 61
e 47 62
e 47 79
e 47 83
e 47 85
e 47 92
e 47 100
e 47 104
e 47 106
e 47 114
e 47 118
e 47 120
e 47 123
e 47 127
e 47 130
e 47 137
e 47 138
e 47 147
e 47 151
e 47 155
e 47 160
e 47 170
e 47 175
e 47 179
e 47 187
e 47 193
e 47 197
e 47 199
e 48 50
e 48 51
e 48 54
e 48 55
e 48 59
e 48 60
e 48 61
e 48 65
e 48 70
e 48 72
e 48 83
e 48 88
e 48 96
e 48 100
e 48 103
e 48 109
e 48 117
e 48 128
e 48 131
e 48 133
e 48 137
e 48 146
e 48 148
e 48 149
e 48 151
e 48 155
e 48 157
e 48 160
e 48 161
e 48 165
e 48 166
e 48 169
e 48 174
e 48 191
e 48 192
e 49 55
e 49 64
e 49 69
e 49 70
e 49 73
e 49 78
e 49 80
e 49 89
e 49 92
e 49 98
e 49 100
e 49 115
e 49 121
e 49 134
e 49 138
e 49 140
e 49 142
e 49 147
e 49 151
e 49 160
e 49 163
e 49 168
e 49 170
e 49 182
e 49 187
e 49 190
e 49 191
e 49 193
e 50 51
e 50 52
e 50 53
e 50 54
e 50 55
e 50 57
e 50 59
e 50 61
e 50 64
e 50 71
e 50 75
e 50 76
e 50 78
e 50 84
e 50 88
e 50 93
e 50 103
e 50 115
e 50 116
e 50 128
e 50 129
e 50 130
e 50 132
e 50 142
e 50 145
e 50 149
e 50 151
e 50 154
e 50 157
e 50 161
e 50 170
e 50 172
e 50 175
e 50 176
e 50 180
e 50 189
e 50 191
e 50 194
e 51 54
e 51 56
e 51 67
e 51 80
e 51 93
e 51 95
e 51 97
e 51 102
e 51 104
e 51 115
e 51 117
e 51 119
e 51 129
e 51 145
e 51 146
e 51 150
e 51 153
e 51 155
e 51 156
e 51 161
e 51 163
e 51 164
e 51 167
e 51 186
e 51 190
e 51 197
e 52 55
e 52 60
e 52 61
e 52 63
e 52 71
e 52 76
e 52 87
e 52 89
e 52 91
e 52 94
e 52 97
e 52 100
e 52 105
e 52 120
e 52 123
e 52 124
e 52 129
e 52 135
e 52 142
e 52 144
e 52 152
e 52 174
e 52 176
e 52 178
e 52 186
e 52 193
e 52 196
e 52 200
e 53 54
e 53 56
e 53 57
e 53 58
e 53 62
e 53 68
e 53 77
e 53 97
e 53 98
e 53 101
e 53 111
e 53 122
e 53 124
e 53 136
e 53 137
e 53 138
e 53 139
e 53 148
e 53 150
e 53 151
e 53 157
e 53 158
e 53 162
e 53 163
e 53 164
e 53 178
e 53 183
e 53 185
e 53 188
e 53 192
e 53 198
e 54 58
e 54 62
e 54 73
e 54 75
e 54 79
e 54 96
e 54 99
e 54 112
e 54 113
e 54 117
e 54 125
e 54 137
e 54 138
e 54 144
e 54 153
e 54 156
e 54 161
e 54 164
e 54 169
e 54 170
e 54 173
e 54 174
e 54 183
e 54 185
e 54 188
e 54 191
e 54 196
e 54 199
e 55 56
e 55 61
e 55 62
e 55 64
e 55 66
e 55 70
e 55 72
e 55 83
e 55 88
e 55 100
e 55 116
e 55 118
e 55 119
e 55 122
e 55 129
e 55 141
e 55 146
e 55 150
e 55 153
e 55 154
e 55 157
e 55 164
e 55 166
e 55 175
e 55 181
e 55 183
e 55 186
e 55 192
e 55 198
e 55 200
e 56 62
e 56 64
e 56 66
e 56 77
e 56 89
e 56 90
e 56 92
e 56 102
e 56 107
e 56 112
e 56 114
e 56 122
e 56 126
e 56 129
e 56 130
e 56 140
e 56 149
e 56 153
e 56 159
e 56 169
e 56 191
e 56 194
e 56 195
e 56 196
e 56 197
e 56 200
e 57 66
e 57 69
e 57 78
e 57 79
e 57 96
e 57 101
e 57 104
e 57 107
e 57 110
e 57 122
e 57 124
e 57 125
e 57 126
e 57 127
e 57 141
e 57 142
e 57 143
e 57 151
e 57 159
e 57 163
e 57 184
e 57 185
e 58 59
e 58 62
e 58 63
e 58 64
e 58 66
e 58 72
e 58 74
e 58 76
e 58 77
e 58 79
e 58 82
e 58 85
e 58 90
e 58 93
e 58 95
e 58 98
e 58 101
e 58 102
e 58 108
e 58 109
e 58 113
e 58 118
e 58 122
e 58 130
e 58 134
e 58 136
e 58 141
e 58 143
e 58 148
e 58 155
e 58 160
e 58 165
e 58 175
e 58 178
e 58 181
e 58 183
e 58 187
e 58 188
e 58 190
e 58 192
e 58 198
e 58 200
e 59 61
e 59 62
e 59 64
e 59 70
e 59 76
e 59 77
e 59 80
e 59 83
e 59 89
e 59 90
e 59 92
e 59 95
e 59 96
e 59 98
e 59 103
e 59 109
e 59 112
e 59 115
e 59 121
e 59 122
e 59 129
e 59 133
e 59 139
e 59 143
e 59 145
e 59 146
e 59 150
e 59 155
e 59 159
e 59 160
e 59 164
e 59 165
e 59 173
e 59 176
e 59 178
e 59 182
e 60 61
e 60 62
e 60 68
e 60 80
e 60 91
e 60 92
e 60 96
e 60 104
e 60 110
e 60 111
e 60 128
e 60 131
e 60 135
e 60 138
e 60 139
e 60 144
e 60 145
e 60 156
e 60 159
e 60 163
e 60 171
e 60 174
e 60 183
e 60 187
e 60 189
e 60 190
e 60 192
e 60 193
e 60 196
e 60 199
e 61 73
e 61 75
e 61 76
e 61 88
e 61 95
e 61 96
e 61 103
e 61 111
e 61 115
e 61 116
e 61 119
e 61 120
e 61 152
e 61 159
e 61 164
e 61 172
e 61 181
e 61 183
e 61 184
e 61 186
e 61 189
e 61 192
e 61 194
e 61 197
e 62 75
e 62 80
e 62 86
e 62 92
e 62 95
e 62 100
e 62 101
e 62 103
e 62 106
e 62 110
e 62 115
e 62 116
e 62 120
e 62 122
e 62 123
e 62 127
e 62 128
e 62 132
e 62 137
e 62 141
e 62 143
e 62 159
e 62 162
e 62 169
e 62 185
e 62 189
e 62 191
e 62 192
e 63 68
e 63 76
e 63 79
e 63 80
e 63 92
e 63 101
e 63 104
e 63 108
e 63 115
e 63 126
e 63 134
e 63 150
e 63 151
e 63 154
e 63 163
e 63 172
e 63 173
e 63 174
e 63 181
e 63 182
e 63 183
e 63 186
e 63 188
e 63 199
e 63 200
e 64 66
e 64 68
e 64 81
e 64 94
e 64 97
e 64 116
e 64 131
e 64 139
e 64 142
e 64 144
e 64 146
e 64 151
e 64 155
e 64 158
e 64 159
e 64 168
e 64 169
e 64 175
e 64 182
e 64 183
e 64 194
e 64 196
e 65 77
e 65 88
e 65 93
e 65 95
e 65 98
e 65 114
e 65 123
e 65 127
e 65 128
e 65 144
e 65 145
e 65 149
e 65 152
e 65 153
e 65 157
e 65 161
e 65 163
e 65 175
e 65 179
e 65 183
e 65 189
e 65 198
e 65 200
e 66 70
e 66 71
e 66 93
e 66 94
e 66 103
e 66 110
e 66 121
e 66 124
e 66 128
e 66 130
e 66 136
e 66 137
e 66 138
e 66 141
e 66 144
e 66 150
e 66 158
e 66 163
e 66 167
e 66 174
e 66 180
e 66 182
e 66 183
e 66 190
e 66 192
e 66 195
e 67 76
e 67 80
e 67 81
e 67 96
e 67 100
e 67 103
e 67 104
e 67 124
e 67 128
e 67 132
e 67 140
e 67 142
e 67 146
e 67 150
e 67 169
e 67 170
e 67 173
e 67 191
e 67 192
e 67 198
e 68 72
e 68 85
e 68 86
e 68 88
e 68 91
e 68 97
e 68 99
e 68 100
e 68 104
e 68 106
e 68 110
e 68 116
e 68 124
e 68 125
e 68 131
e 68 133
e 68 137
e 68 141
e 68 142
e 68 148
e 68 154
e 68 158
e 68 159
e 68 164
e 68 166
e 68 168
e 68 170
e 68 178
e 68 179
e 68 183
e 68 186
e 68 188
e 68 198
e 69 71
e 69 82
e 69 103
e 69 106
e 69 109
e 69 112
e 69 115
e 69 122
e 69 125
e 69 127
e 69 129
e 69 130
e 69 132
e 69 134
e 69 135
e 69 147
e 69 154
e 69 159
e 69 173
e 69 174
e 69 176
e 69 183
e 69 192
e 69 193
e 69 196
e 69 197
e 69 198
e 70 75
e 70 78
e 70 82
e 70 83
e 70 92
e 70 93
e 70 95
e 70 97
e 70 103
e 70 110
e 70 111
e 70 112
e 70 114
e 70 119
e 70 124
e 70 125
e 70 134
e 70 137
e 70 146
e 70 148
e 70 151
e 70 153
e 70 156
e 70 160
e 70 163
e 70 170
e 70 171
e 70 172
e 70 181
e 70 184
e 70 186
e 70 193
e 70 199
e 71 74
e 71 75
e 71 90
e 71 95
e 71 109
e 71 114
e 71 120
e 71 135
e 71 142
e 71 144
e 71 151
e 71 154
e 71 157
e 71 165
e 71 172
e 71 177
e 71 180
e 71 183
e 71 187
e 71 191
e 71 195
e 71 196
e 72 80
e 72 82
e 72 84
e 72 85
e 72 88
e 72 93
e 72 99
e 72 101
e 72 104
e 72 114
e 72 125
e 72 136
e 72 139
e 72 143
e 72 144
e 72 149
e 72 150
e 72 151
e 72 162
e 72 164
e 72 177
e 72 178
e 72 186
e 72 190
e 72 191
e 72 192
e 72 195
e 72 198
e 73 77
e 73 78
e 73 84
e 73 93
e 73 107
e 73 121
e 73 122
e 73 124
e 73 126
e 73 128
e 73 139
e 73 145
e 73 148
e 73 150
e 73 152
e 73 165
e 73 171
e 73 174
e 73 175
e 73 192
e 74 75
e 74 84
e 74 86
e 74 87
e 74 88
e 74 91
e 74 98
e 74 99
e 74 107
e 74 109
e 74 110
e 74 111
e 74 123
e 74 125
e 74 128
e 74 135
e 74 140
e 74 149
e 74 151
e 74 154
e 74 156
e 74 162
e 74 164
e 74 178
e 74 179
e 74 181
e 74 184
e 74 191
e 74 193
e 74 195
e 74 196
e 75 79
e 75 80
e 75 81
e 75 88
e 75 91
e 75 93
e 75 94
e 75 99
e 75 103
e 75 105
e 75 106
e 75 109
e 75 116
e 75 117
e 75 118
e 75 119
e 75 120
e 75 122
e 75 137
e 75 150
e 75 155
e 75 157
e 75 158
e 75 160
e 75 163
e 75 166
e 75 170
e 75 174
e 75 175
e 75 183
e 75 186
e 75 197
e 76 80
e 76 84
e 76 85
e 76 86
e 76 92
e 76 95
e 76 98
e 76 101
e 76 102
e 76 103
e 76 109
e 76 118
e 76 130
e 76 134
e 76 137
e 76 139
e 76 143
e 76 144
e 76 145
e 76 149
e 76 157
e 76 164
e 76 165
e 76 169
e 76 177
e 76 182
e 76 187
e 76 188
e 76 189
e 76 190
e 76 191
e 76 192
e 76 198
e 77 84
e 77 86
e 77 87
e 77 106
e 77 107
e 77 120
e 77 121
e 77 128
e 77 130
e 77 131
e 77 132
e 77 136
e 77 143
e 77 144
e 77 147
e 77 151
e 77 153
e 77 159
e 77 160
e 77 163
e 77 170
e 77 177
e 77 180
e 77 188
e 77 193
e 77 198
e 78 79
e 78 80
e 78 81
e 78 85
e 78 87
e 78 88
e 78 92
e 78 93
e 78 94
e 78 96
e 78 101
e 78 103
e 78 105
e 78 108
e 78 115
e 78 121
e 78 124
e 78 131
e 78 135
e 78 140
e 78 150
e 78 151
e 78 152
e 78 159
e 78 162
e 78 169
e 78 176
e 78 178
e 78 180
e 78 185
e 78 190
e 78 194
e 78 195
e 79 81
e 79 86
e 79 91
e 79 96
e 79 98
e 79 99
e 79 100
e 79 104
e 79 108
e 79 109
e 79 112
e 79 127
e 79 134
e 79 137
e 79 154
e 79 155
e 79 158
e 79 163
e 79 165
e 79 170
e 79 171
e 79 176
e 79 188
e 79 193
e 80 89
e 80 92
e 80 96
e 80 99
e 80 102
e 80 129
e 80 130
e 80 137
e 80 139
e 80 146
e 80 148
e 80 150
e 80 153
e 80 154
e 80 155
e 80 156
e 80 164
e 80 169
e 80 173
e 80 176
e 80 194
e 80 196
e 80 199
e 81 82
e 81 90
e 81 92
e 81 97
e 81 102
e 81 107
e 81 112
e 81 123
e 81 125
e 81 127
e 81 151
e 81 154
e 81 160
e 81 161
e 81 165
e 81 173
e 81 181
e 81 183
e 81 184
e 81 186
e 81 187
e 81 197
e 82 86
e 82 93
e 82 95
e 82 98
e 82 112
e 82 118
e 82 121
e 82 122
e 82 125
e 82 127
e 82 128
e 82 129
e 82 134
e 82 135
e 82 139
e 82 147
e 82 149
e 82 155
e 82 174
e 82 175
e 82 188
e 82 199
e 83 88
e 83 91
e 83 94
e 83 105
e 83 111
e 83 114
e 83 117
e 83 118
e 83 119
e 83 122
e 83 130
e 83 132
e 83 133
e 83 143
e 83 150
e 83 151
e 83 154
e 83 158
e 83 160
e 83 162
e 83 165
e 83 167
e 83 169
e 83 170
e 83 172
e 83 173
e 83 182
e 83 193
e 83 195
e 83 197
e 83 200
e 84 85
e 84 87
e 84 92
e 84 97
e 84 106
e 84 108
e 84 114
e 84 117
e 84 119
e 84 121
e 84 122
e 84 125
e 84 129
e 84 131
e 84 134
e 84 138
e 84 140
e 84 143
e 84 146
e 84 149
e 84 159
e 84 161
e 84 162
e 84 164
e 84 165
e 84 167
e 84 170
e 84 173
e 84 180
e 84 190
e 85 91
e 85 94
e 85 103
e 85 110
e 85 114
e 85 118
e 85 120
e 85 129
e 85 130
e 85 133
e 85 136
e 85 139
e 85 151
e 85 154
e 85 174
e 85 175
e 85 184
e 85 192
e 86 95
e 86 99
e 86 103
e 86 124
e 86 132
e 86 140
e 86 144
e 86 151
e 86 158
e 86 162
e 86 168
e 86 173
e 86 176
e 86 182
e 86 185
e 86 186
e 86 187
e 86 190
e 86 196
e 86 197
e 87 89
e 87 94
e 87 98
e 87 100
e 87 112
e 87 116
e 87 118
e 87 139
e 87 149
e 87 169
e 87 170
e 87 173
e 87 181
e 87 182
e 87 186
e 87 190
e 87 192
e 87 198
e 87 200
e 88 89
e 88 95
e 88 101
e 88 102
e 88 108
e 88 114
e 88 115
e 88 118
e 88 119
e 88 129
e 88 130
e 88 135
e 88 143
e 88 146
e 88 153
e 88 154
e 88 156
e 88 158
e 88 185
e 88 186
e 88 191
e 88 192
e 88 197
e 89 97
e 89 105
e 89 114
e 89 117
e 89 119
e 89 128
e 89 138
e 89 160
e 89 161
e 89 166
e 89 186
e 89 190
e 89 191
e 89 192
e 89 193
e 89 200
e 90 93
e 90 98
e 90 99
e 90 100
e 90 103
e 90 105
e 90 107
e 90 109
e 90 113
e 90 118
e 90 120
e 90 122
e 90 126
e 90 139
e 90 141
e 90 147
e 90 149
e 90 158
e 90 161
e 90 171
e 90 176
e 90 178
e 90 183
e 90 185
e 90 189
e 90 193
e 90 194
e 90 200
e 91 94
e 91 98
e 91 104
e 91 105
e 91 111
e 91 118
e 91 121
e 91 133
e 91 141
e 91 164
e 91 169
e 91 172
e 91 173
e 91 174
e 91 184
e 91 189
e 91 195
e 91 198
e 91 199
e 92 100
e 92 105
e 92 114
e 92 115
e 92 121
e 92 123
e 92 133
e 92 136
e 92 147
e 92 159
e 92 161
e 92 163
e 92 164
e 92 169
e 92 170
e 92 171
e 92 180
e 92 181
e 92 183
e 92 186
e 92 187
e 92 189
e 92 190
e 92 191
e 92 198
e 92 199
e 93 94
e 93 95
e 93 104
e 93 115
e 93 121
e 93 122
e 93 124
e 93 127
e 93 129
e 93 141
e 93 145
e 93 149
e 93 150
e 93 162
e 93 164
e 93 169
e 93 177
e 93 178
e 93 184
e 93 188
e 93 191
e 94 95
e 94 100
e 94 105
e 94 109
e 94 116
e 94 118
e 94 127
e 94 131
e 94 143
e 94 144
e 94 146
e 94 148
e 94 155
e 94 159
e 94 162
e 94 163
e 94 167
e 94 175
e 94 176
e 94 177
e 94 180
e 94 186
e 94 195
e 94 198
e 94 200
e 95 97
e 95 102
e 95 112
e 95 116
e 95 119
e 95 120
e 95 124
e 95 128
e 95 129
e 95 133
e 95 136
e 95 138
e 95 147
e 95 151
e 95 154
e 95 168
e 95 171
e 95 181
e 95 182
e 95 185
e 95 189
e 95 194
e 95 197
e 96 104
e 96 106
e 96 111
e 96 126
e 96 127
e 96 130
e 96 131
e 96 133
e 96 136
e 96 142
e 96 144
e 96 146
e 96 150
e 96 155
e 96 157
e 96 163
e 96 167
e 96 168
e 96 169
e 96 177
e 96 178
e 96 182
e 96 184
e 96 194
e 97 99
e 97 100
e 97 102
e 97 107
e 97 114
e 97 119
e 97 133
e 97 137
e 97 141
e 97 142
e 97 143
e 97 144
e 97 149
e 97 154
e 97 162
e 97 163
e 97 168
e 97 172
e 97 184
e 97 185
e 97 190
e 97 200
e 98 101
e 98 104
e 98 105
e 98 109
e 98 110
e 98 115
e 98 117
e 98 118
e 98 135
e 98 141
e 98 143
e 98 149
e 98 150
e 98 152
e 98 153
e 98 154
e 98 155
e 98 170
e 99 102
e 99 104
e 99 108
e 99 114
e 99 115
e 99 118
e 99 119
e 99 120
e 99 124
e 99 130
e 99 136
e 99 154
e 99 155
e 99 157
e 99 159
e 99 162
e 99 163
e 99 166
e 99 174
e 99 178
e 99 181
e 99 182
e 99 191
e 99 192
e 100 103
e 100 104
e 100 114
e 100 118
e 100 125
e 100 127
e 100 134
e 100 136
e 100 137
e 100 138
e 100 140
e 100 147
e 100 153
e 100 163
e 100 164
e 100 166
e 100 167
e 100 177
e 100 180
e 100 181
e 100 185
e 100 190
e 100 191
e 100 198
e 100 200
e 101 102
e 101 110
e 101 112
e 101 113
e 101 114
e 101 118
e 101 123
e 101 126
e 101 130
e 101 134
e 101 136
e 101 142
e 101 143
e 101 144
e 101 148
e 101 151
e 101 154
e 101 164
e 101 165
e 101 175
e 101 178
e 101 181
e 101 185
e 101 190
e 101 192
e 101 194
e 101 198
e 102 103
e 102 107
e 102 108
e 102 113
e 102 117
e 102 125
e 102 141
e 102 142
e 102 144
e 102 145
e 102 148
e 102 150
e 102 168
e 102 172
e 102 180
e 102 182
e 102 192
e 102 194
e 103 105
e 103 117
e 103 122
e 103 125
e 103 131
e 103 132
e 103 134
e 103 136
e 103 142
e 103 155
e 103 157
e 103 168
e 103 172
e 103 174
e 103 177
e 103 179
e 103 185
e 103 186
e 103 192
e 103 193
e 103 194
e 104 107
e 104 108
e 104 109
e 104 112
e 104 114
e 104 119
e 104 121
e 104 133
e 104 137
e 104 142
e 104 144
e 104 151
e 104 152
e 104 155
e 104 160
e 104 167
e 104 168
e 104 169
e 104 171
e 104 177
e 104 189
e 104 195
e 104 198
e 104 200
e 105 106
e 105 108
e 105 132
e 105 136
e 105 138
e 105 143
e 105 153
e 105 154
e 105 169
e 105 173
e 105 176
e 105 179
e 105 182
e 105 188
e 105 189
e 105 190
e 105 196
e 105 200
e 106 109
e 106 113
e 106 116
e 106 121
e 106 124
e 106 130
e 106 131
e 106 137
e 106 142
e 106 145
e 106 149
e 106 154
e 106 155
e 106 156
e 106 160
e 106 172
e 106 177
e 106 184
e 106 189
e 106 193
e 106 195
e 107 114
e 107 116
e 107 119
e 107 125
e 107 135
e 107 141
e 107 142
e 107 149
e 107 159
e 107 160
e 107 164
e 107 165
e 107 175
e 107 184
e 107 189
e 107 191
e 107 194
e 107 197
e 107 198
e 107 199
e 108 109
e 108 114
e 108 131
e 108 137
e 108 141
e 108 153
e 108 159
e 108 160
e 108 161
e 108 162
e 108 177
e 108 185
e 108 188
e 108 192
e 108 198
e 108 200
e 109 112
e 109 115
e 109 117
e 109 123
e 109 124
e 109 131
e 109 132
e 109 143
e 109 144
e 109 151
e 109 159
e 109 161
e 109 162
e 109 163
e 109 168
e 109 175
e 109 176
e 109 178
e 109 180
e 109 187
e 109 199
e 110 115
e 110 116
e 110 119
e 110 120
e 110 128
e 110 133
e 110 136
e 110 138
e 110 144
e 110 157
e 110 163
e 110 170
e 110 172
e 110 173
e 110 176
e 110 178
e 110 179
e 110 180
e 110 190
e 110 192
e 111 115
e 111 124
e 111 125
e 111 127
e 111 141
e 111 142
e 111 144
e 111 153
e 111 165
e 111 171
e 111 174
e 111 175
e 111 176
e 111 184
e 111 186
e 111 187
e 111 188
e 111 197
e 112 113
e 112 120
e 112 141
e 112 148
e 112 155
e 112 165
e 112 167
e 112 169
e 112 170
e 112 173
e 112 176
e 112 178
e 112 188
e 112 192
e 112 197
e 113 114
e 113 117
e 113 130
e 113 139
e 113 144
e 113 147
e 113 155
e 113 160
e 113 161
e 113 162
e 113 189
e 113 196
e 114 115
e 114 119
e 114 122
e 114 140
e 114 155
e 114 168
e 114 169
e 114 170
e 114 173
e 114 181
e 114 185
e 114 187
e 114 195
e 114 196
e 115 118
e 115 126
e 115 129
e 115 136
e 115 142
e 115 144
e 115 146
e 115 155
e 115 158
e 115 170
e 115 173
e 115 188
e 115 189
e 115 191
e 115 193
e 115 196
e 116 120
e 116 121
e 116 133
e 116 134
e 116 137
e 116 138
e 116 142
e 116 146
e 116 154
e 116 157
e 116 159
e 116 160
e 116 164
e 116 165
e 116 168
e 116 169
e 116 170
e 116 192
e 116 195
e 116 196
e 117 123
e 117 129
e 117 130
e 117 131
e 117 136
e 117 142
e 117 147
e 117 161
e 117 163
e 117 165
e 117 172
e 117 173
e 117 177
e 117 178
e 117 180
e 117 187
e 117 198
e 117 200
e 118 119
e 118 120
e 118 122
e 118 136
e 118 139
e 118 145
e 118 146
e 118 148
e 118 150
e 118 151
e 118 154
e 118 168
e 118 171
e 118 179
e 118 184
e 118 185
e 118 194
e 118 198
e 119 120
e 119 124
e 119 137
e 119 139
e 119 144
e 119 145
e 119 146
e 119 151
e 119 158
e 119 164
e 119 167
e 119 169
e 119 176
e 119 185
e 119 190
e 119 191
e 119 192
e 119 193
e 120 122
e 120 124
e 120 125
e 120 128
e 120 132
e 120 136
e 120 138
e 120 141
e 120 142
e 120 153
e 120 156
e 120 163
e 120 165
e 120 171
e 120 172
e 120 173
e 120 180
e 120 185
e 120 194
e 120 197
e 121 123
e 121 127
e 121 130
e 121 133
e 121 139
e 121 146
e 121 158
e 121 161
e 121 164
e 121 172
e 121 174
e 121 178
e 121 189
e 121 191
e 121 194
e 122 123
e 122 139
e 122 142
e 122 146
e 122 156
e 122 160
e 122 169
e 122 173
e 122 178
e 122 182
e 122 190
e 123 126
e 123 136
e 123 138
e 123 143
e 123 144
e 123 147
e 123 149
e 123 152
e 123 159
e 123 165
e 123 172
e 123 177
e 123 181
e 123 184
e 123 187
e 123 189
e 123 190
e 123 193
e 123 195
e 123 199
e 124 126
e 124 129
e 124 139
e 124 166
e 124 167
e 124 169
e 124 173
e 124 174
e 124 175
e 124 176
e 124 177
e 124 179
e 124 182
e 124 185
e 124 191
e 124 192
e 124 196
e 124 200
e 125 132
e 125 133
e 125 159
e 125 163
e 125 164
e 125 175
e 125 176
e 125 180
e 125 185
e 125 186
e 125 188
e 125 195
e 126 134
e 126 135
e 126 141
e 126 150
e 126 151
e 126 153
e 126 155
e 126 157
e 126 159
e 126 169
e 126 170
e 126 171
e 126 173
e 126 175
e 126 176
e 126 186
e 126 188
e 126 193
e 126 197
e 126 199
e 127 130
e 127 134
e 127 141
e 127 145
e 127 147
e 127 154
e 127 155
e 127 168
e 127 174
e 128 141
e 128 142
e 128 146
e 128 148
e 128 158
e 128 161
e 128 162
e 128 163
e 128 164
e 128 166
e 128 167
e 128 169
e 128 172
e 128 173
e 128 175
e 128 180
e 128 183
e 128 185
e 128 191
e 128 200
e 129 136
e 129 138
e 129 147
e 129 161
e 129 167
e 129 170
e 129 171
e 129 186
e 129 197
e 129 199
e 130 145
e 130 146
e 130 149
e 130 150
e 130 159
e 130 167
e 130 169
e 130 171
e 130 175
e 130 177
e 130 181
e 130 183
e 130 186
e 130 189
e 130 194
e 130 196
e 130 198
e 131 139
e 131 144
e 131 151
e 131 153
e 131 163
e 131 168
e 131 170
e 131 173
e 131 174
e 131 180
e 131 184
e 131 195
e 132 135
e 132 146
e 132 150
e 132 155
e 132 157
e 132 158
e 132 169
e 132 183
e 132 184
e 132 191
e 132 197
e 132 198
e 133 135
e 133 136
e 133 138
e 133 149
e 133 155
e 133 159
e 133 161
e 133 166
e 133 169
e 133 179
e 133 181
e 133 192
e 133 195
e 133 196
e 133 197
e 133 199
e 133 200
e 134 135
e 134 147
e 134 148
e 134 149
e 134 150
e 134 165
e 134 172
e 134 177
e 134 178
e 134 182
e 134 185
e 134 193
e 134 200
e 135 137
e 135 139
e 135 150
e 135 151
e 135 163
e 135 177
e 135 185
e 135 188
e 135 189
e 135 195
e 136 140
e 136 149
e 136 151
e 136 152
e 136 157
e 136 159
e 136 167
e 136 169
e 136 170
e 136 175
e 136 179
e 136 181
e 136 182
e 136 184
e 136 187
e 136 190
e 136 192
e 136 197
e 136 200
e 137 138
e 137 143
e 137 144
e 137 145
e 137 147
e 137 157
e 137 169
e 137 172
e 137 174
e 137 182
e 137 195
e 138 144
e 138 145
e 138 148
e 138 149
e 138 151
e 138 157
e 138 162
e 138 163
e 138 166
e 138 169
e 138 170
e 138 172
e 138 176
e 138 187
e 138 192
e 138 197
e 138 200
e 139 141
e 139 147
e 139 148
e 139 153
e 139 160
e 139 163
e 139 167
e 139 179
e 139 181
e 139 188
e 139 191
e 140 141
e 140 144
e 140 145
e 140 146
e 140 153
e 140 156
e 140 159
e 140 166
e 140 167
e 140 170
e 140 171
e 140 176
e 140 177
e 140 181
e 140 185
e 140 191
e 140 200
e 141 149
e 141 155
e 141 163
e 141 165
e 141 170
e 141 173
e 141 175
e 141 188
e 141 192
e 141 194
e 141 195
e 142 143
e 142 153
e 142 161
e 142 164
e 142 170
e 142 175
e 142 176
e 142 180
e 142 181
e 142 189
e 142 197
e 142 200
e 143 145
e 143 148
e 143 163
e 143 165
e 143 181
e 143 182
e 143 184
e 143 185
e 143 190
e 144 148
e 144 150
e 144 157
e 144 165
e 144 170
e 144 180
e 144 186
e 144 188
e 144 192
e 144 197
e 144 198
e 144 200
e 145 147
e 145 155
e 145 165
e 145 170
e 145 172
e 145 173
e 145 175
e 145 178
e 145 183
e 145 186
e 145 189
e 145 191
e 145 194
e 145 199
e 146 149
e 146 152
e 146 165
e 146 167
e 146 168
e 146 170
e 146 175
e 146 181
e 146 191
e 146 198
e 147 153
e 147 157
e 147 160
e 147 161
e 147 170
e 147 187
e 147 190
e 147 193
e 147 194
e 147 199
e 147 200
e 148 154
e 148 157
e 148 160
e 148 161
e 148 164
e 148 165
e 148 166
e 148 167
e 148 168
e 148 171
e 148 172
e 148 174
e 148 178
e 148 180
e 148 185
e 148 188
e 148 190
e 148 197
e 148 199
e 149 153
e 149 156
e 149 160
e 149 163
e 149 167
e 149 171
e 149 177
e 149 178
e 149 183
e 149 190
e 149 192
e 149 197
e 149 199
e 149 200
e 150 182
e 150 192
e 150 195
e 150 196
e 151 154
e 151 158
e 151 160
e 151 161
e 151 175
e 151 179
e 151 186
e 151 188
e 151 189
e 151 192
e 152 154
e 152 159
e 152 168
e 152 171
e 152 175
e 152 186
e 152 187
e 152 189
e 152 190
e 152 192
e 152 200
e 153 155
e 153 158
e 153 160
e 153 161
e 153 162
e 153 168
e 153 170
e 153 171
e 153 175
e 153 185
e 153 190
e 153 193
e 153 197
e 154 157
e 154 158
e 154 171
e 154 172
e 154 173
e 154 183
e 154 192
e 154 198
e 154 199
e 155 159
e 155 160
e 155 168
e 155 170
e 155 174
e 155 178
e 155 180
e 155 182
e 155 186
e 155 189
e 155 195
e 156 157
e 156 159
e 156 160
e 156 170
e 156 176
e 156 184
e 156 185
e 156 198
e 157 159
e 157 165
e 157 195
e 157 199
e 158 160
e 158 168
e 158 178
e 158 179
e 158 183
e 158 190
e 158 192
e 158 195
e 159 170
e 159 171
e 159 174
e 159 175
e 159 183
e 159 184
e 159 187
e 159 194
e 160 161
e 160 164
e 160 169
e 160 173
e 160 175
e 160 179
e 160 185
e 160 196
e 160 197
e 161 163
e 161 170
e 161 175
e 161 180
e 161 181
e 161 182
e 161 184
e 161 185
e 161 186
e 161 189
e 161 191
e 161 193
e 161 196
e 162 180
e 162 184
e 162 189
e 163 171
e 163 172
e 163 181
e 163 186
e 163 196
e 163 197
e 164 165
e 164 169
e 164 174
e 164 175
e 164 177
e 164 179
e 164 181
e 164 187
e 164 189
e 164 191
e 164 194
e 164 199
e 164 200
e 165 167
e 165 171
e 165 184
e 165 186
e 165 187
e 165 199
e 166 167
e 166 168
e 166 176
e 166 179
e 166 181
e 166 195
e 166 196
e 166 199
e 166 200
e 167 169
e 167 173
e 167 174
e 167 176
e 167 177
e 167 179
e 167 181
e 167 189
e 167 192
e 167 195
e 167 197
e 168 169
e 168 174
e 168 179
e 168 183
e 168 184
e 168 190
e 168 196
e 168 198
e 169 170
e 169 178
e 169 185
e 169 190
e 169 191
e 169 195
e 169 198
e 169 200
e 170 171
e 170 172
e 170 179
e 170 180
e 170 183
e 170 188
e 170 189
e 170 191
e 170 198
e 171 174
e 171 185
e 171 192
e 171 193
e 171 198
e 171 199
e 171 200
e 172 173
e 172 176
e 172 178
e 172 179
e 172 180
e 172 182
e 172 186
e 172 192
e 172 197
e 172 199
e 173 177
e 173 179
e 173 182
e 173 183
e 173 190
e 173 194
e 173 196
e 173 200
e 174 185
e 174 191
e 174 192
e 175 177
e 175 178
e 175 185
e 175 196
e 175 199
e 176 178
e 176 181
e 176 183
e 176 199
e 176 200
e 177 182
e 177 184
e 177 191
e 177 193
e 177 199
e 177 200
e 178 179
e 178 186
e 178 190
e 178 194
e 178 197
e 179 192
e 179 193
e 179 199
e 180 181
e 180 182
e 180 190
e 180 197
e 181 182
e 181 183
e 181 189
e 181 196
e 182 183
e 182 194
e 182 197
e 182 198
e 183 184
e 183 187
e 183 188
e 183 193
e 183 199
e 184 185
e 184 186
e 184 198
e 185 196
e 185 197
e 185 198
e 185 200
e 186 196
e 186 197
e 187 191
e 187 193
e 187 200
e 188 198
e 189 194
e 190 196
e 191 199
e 192 196
e 193 196
e 193 200
e 194 195
e 195 196
e 196 199
e 197 200
